
******************************************************************************
This program contains Ipopt, a library for large-scale nonlinear optimization.
 Ipopt is released as open source code under the Eclipse Public License (EPL).
         For more information visit http://projects.coin-or.org/Ipopt
******************************************************************************

This is Ipopt version 3.12.13, running with linear solver mumps.
NOTE: Other linear solvers might be more efficient (see Ipopt documentation).

Number of nonzeros in equality constraint Jacobian...:      367
Number of nonzeros in inequality constraint Jacobian.:      108
Number of nonzeros in Lagrangian Hessian.............:      145

Total number of variables............................:       86
                     variables with only lower bounds:       16
                variables with lower and upper bounds:       42
                     variables with only upper bounds:        0
Total number of equality constraints.................:       78
Total number of inequality constraints...............:       28
        inequality constraints with only lower bounds:        0
   inequality constraints with lower and upper bounds:        0
        inequality constraints with only upper bounds:       28

iter    objective    inf_pr   inf_du lg(mu)  ||d||  lg(rg) alpha_du alpha_pr  ls
   0  1.0875588e+03 8.71e-06 1.00e+02   0.0 0.00e+00    -  0.00e+00 0.00e+00   0
   1  1.0875583e+03 8.71e-06 2.08e+03  -4.4 2.55e-03    -  9.80e-01 5.67e-04f  1
   2  1.0876829e+03 7.17e-06 8.17e+04  -1.0 4.78e+00    -  1.00e+00 1.76e-01f  1
   3  1.0880902e+03 3.97e-08 5.29e+01  -1.1 3.30e-01    -  1.00e+00 1.00e+00H  1
   4  1.0876229e+03 1.89e-05 1.71e+02  -2.2 2.58e-02    -  1.00e+00 1.00e+00f  1
   5  1.0875966e+03 4.16e-07 1.74e-02  -2.3 6.42e-02    -  1.00e+00 1.00e+00h  1
   6  1.0875591e+03 1.92e-07 3.46e+03  -8.3 2.32e-03    -  9.94e-01 1.00e+00f  1
   7  1.0875588e+03 5.29e-10 1.76e-01  -6.1 8.32e-03    -  1.00e+00 9.98e-01h  1
   8  1.0875588e+03 6.02e-12 1.33e-09  -6.9 2.65e-01    -  1.00e+00 1.00e+00h  1
   9  1.0875588e+03 4.83e-12 9.43e-03  -7.7 2.87e-01    -  9.99e-01 1.00e+00h  1
iter    objective    inf_pr   inf_du lg(mu)  ||d||  lg(rg) alpha_du alpha_pr  ls
  10  1.0875588e+03 2.84e-12 6.93e-10  -8.6 1.47e-01    -  1.00e+00 1.00e+00h  1
  11  1.0875588e+03 4.22e-12 7.30e-10  -9.5 8.20e-02    -  1.00e+00 1.00e+00h  1

Number of Iterations....: 11

                                   (scaled)                 (unscaled)
Objective...............:   4.7151564697488374e+02    1.0875587979712816e+03
Dual infeasibility......:   7.3011294255407352e-10    1.6840178248203071e-09
Constraint violation....:   3.5407972862310882e-14    4.2208458950199201e-12
Complementarity.........:   6.1312997775243919e-09    1.4141946420711689e-08
Overall NLP error.......:   6.1312997775243919e-09    1.4141946420711689e-08


Number of objective function evaluations             = 13
Number of objective gradient evaluations             = 12
Number of equality constraint evaluations            = 13
Number of inequality constraint evaluations          = 13
Number of equality constraint Jacobian evaluations   = 12
Number of inequality constraint Jacobian evaluations = 12
Number of Lagrangian Hessian evaluations             = 11
Total CPU secs in IPOPT (w/o function evaluations)   =      0.007
Total CPU secs in NLP function evaluations           =      0.000

EXIT: Optimal Solution Found.
